*scrollBar: false

! FONT SETTINGS
!{{{

! URxvt*font      : xft:lemon:style=regular:antialias=false:pixelsize=10
URxvt*font        : -*-terminesspowerline-*-*-*-*-12-*-*-*-*-*-*-*
URxvt*boldFont    : -*-terminesspowerline-bold-*-*-*-12-*-*-*-*-*-*-*
URxvt*letterSpace : 0

! :Bind C-0, C-+ and C-= to activate small, medium, and big font size resp.
URxvt.keysym.C-0: command:\033]710;-*-terminesspowerline-*-*-*-*-12-*-*-*-*-*-*-*\007
URxvt.keysym.C-minus: command:\033]710;xft:lemon:style=regular:antialias=false;pixelsize=10\007
URxvt.keysym.C-equal: command:\033]710;-*-terminesspowerline-*-*-*-*-14-*-*-*-*-*-*-*\007

!}}}

! KEY COMMANDS
! {{{

URxvt.keysym.Shift-Up     : command:\033]720;1\007
URxvt.keysym.Shift-Down   : command:\033]721;1\007

URxvt.urlLauncher         : firefox-developer
URxvt.visualBell          : false
URxvt.iso14755            : false

! COPY PASTE
URxvt.perl-ext-common     : clipboard

URxvt.clipboard.copycmd   : clipit
URxvt.clipboard.pastecmd  : clipit -c

URxvt.keysym.C-C          : perl:clipboard:copy
URxvt.keysym.C-V          : perl:clipboard:paste

URxvt.clipboard.autocopy  : false

! }}}

! URxvt Settings
! {{{

URxvt*termName          : xterm-256color
URxvt*loginShell        : true
URxvt*skipScroll        : false
URxvt*scrollTtyOutput   : false
URxvt*scrollTtyKeypress : true
URxvt*scrollWithBuffer  : false
URxvt*buffered          : true
!URxvt*buffered          : false
UURxvt*saveLines        : 1500
URxvt*urgentOnBell      : false
URxvt*cursorBlink       : 0

URxvt*skipBuiltinGlyphs : false
URxvt*transparent       : false
!URxvt*inheritPixmap    : true

!}}}

! COLORS
! {{{
!! black
*color7           : #424242
*color15          : #7D7D7D

!!! red
*color1           : #B63E50
*color9           : #FF2E4C

!! yellow/orange
*color3           : #DB9F62
*color11          : #FFA03D

!! purple
*color5           : #853F63
*color13          : #FF91C9

!! blue
*color4           : #31789C
*color12          : #2EB9FF

!! green
*color2           : #6B8F5C
*color10          : #ACE594

!! cyan
*color6           : #007866
*color14          : #2DFADB

!! white
*color0           : #8D9599
*color8           : #F1F3F4

*borderColor      : #1A1A1A
*background       : #1A1A1A
*foreground       : #F1F3F4
*cursorColor      : #FF2E4C
*internalBorder   : 15

! }}}

! OPTIONAL SETTINGS

! URxvt*chdir                : string
! URxvt*reverseVideo         : boolean
! URxvt*jumpScroll           : boolean
! URxvt*pastableTabs         : boolean
! URxvt*scrollstyle          : mode
! URxvt*scrollBar            : boolean
! URxvt*scrollBar_right      : boolean
! URxvt*scrollBar_floating   : boolean
! URxvt*scrollBar_align      : mode
! URxvt*thickness            : number

! URxvt*tintColor            : color
! URxvt*shading              : number
! URxvt*blurRadius           : HxV
! URxvt*fading               : number
! URxvt*fadeColor            : color
! URxvt*utmpInhibit          : boolean
! URxvt*urgentOnBell         : boolean
! URxvt*visualBell           : boolean
! URxvt*mapAlert             : boolean
! URxvt*meta8                : boolean
! URxvt*mouseWheelScrollPage : boolean
! URxvt*tripleclickwords     : boolean
! URxvt*insecure             : boolean
! URxvt*cursorUnderline      : boolean
! URxvt*cursorBlink          : boolean
! URxvt*pointerBlank         : boolean
