*scrollBar: false

! FONT SETTINGS
!{{{

URxvt*font     : xft:lemon:style=regular:antialias=false:pixelsize=10
URxvt*boldFont :
URxvt*letterSpace   : 0

! :Bind C-0, C-+ and C-= to activate small, medium, and big font size resp.
URxvt.keysym.C-0: command:\033]710;-*-terminesspowerline-*-*-*-*-12-*-*-*-*-*-*-*\007
URxvt.keysym.C-minus: command:\033]710;xft:lemon:style=regular:antialias=false;pixelsize=10\007
URxvt.keysym.C-equal: command:\033]710;-*-terminesspowerline-*-*-*-*-14-*-*-*-*-*-*-*\007

!}}}

! KEY COMMANDS
! {{{

URxvt.keysym.Shift-Up     : command:\033]720;1\007
URxvt.keysym.Shift-Down   : command:\033]721;1\007

URxvt.urlLauncher         : firefox-developer
URxvt.visualBell          : false
URxvt.iso14755            : false

! COPY PASTE
URxvt.perl-ext-common     : clipboard

URxvt.clipboard.copycmd   : clipit
URxvt.clipboard.pastecmd  : clipit -c

URxvt.keysym.C-C          : perl:clipboard:copy
URxvt.keysym.C-V          : perl:clipboard:paste

URxvt.clipboard.autocopy  : false

! }}}


! URxvt Settings
! {{{

URxvt*termName          : xterm-256color
URxvt*loginShell        : true
URxvt*skipScroll        : false
URxvt*scrollTtyOutput   : false
URxvt*scrollTtyKeypress : true
URxvt*scrollWithBuffer  : false
URxvt*buffered          : true
!URxvt*buffered          : false
UURxvt*saveLines        : 1500
URxvt*urgentOnBell      : false
URxvt*cursorBlink       : 0

URxvt*skipBuiltinGlyphs : false
URxvt*transparent       : false
!URxvt*inheritPixmap    : true

!}}}

! COLORS
! {{{
!! black
*color7           : #2a2a2a
*color15          : #1a1a1a

!!! red
*color1           : #b63e50
*color9           : #ff2e4c

!! yellow/orange
*color3           : #db9f62
*color11          : #ffa03d

!! purple
*color5           : #d3649d
*color13          : #ff91c9

!! blue
*color4           : #60a8cd
*color12          : #2eb9ff

!! green
*color2           : #ace594
*color10          : #a1ff7a

!! cyan
*color6           : #3ad9c2
*color14          : #8fffee

!! white
*color0           : #b3bdc2
*color8           : #f1f3f4

*background       : #1a1a1a
*foreground       : #f1f3f4
*cursorColor      : #ff2e4c
*internalBorder   : 15
*borderColor      : #1a1a1a

! }}}

! OPTIONAL SETTINGS

! URxvt*chdir                : string
! URxvt*reverseVideo         : boolean
! URxvt*jumpScroll           : boolean
! URxvt*pastableTabs         : boolean
! URxvt*scrollstyle          : mode
! URxvt*scrollBar            : boolean
! URxvt*scrollBar_right      : boolean
! URxvt*scrollBar_floating   : boolean
! URxvt*scrollBar_align      : mode
! URxvt*thickness            : number

! URxvt*tintColor            : color
! URxvt*shading              : number
! URxvt*blurRadius           : HxV
! URxvt*fading               : number
! URxvt*fadeColor            : color
! URxvt*utmpInhibit          : boolean
! URxvt*urgentOnBell         : boolean
! URxvt*visualBell           : boolean
! URxvt*mapAlert             : boolean
! URxvt*meta8                : boolean
! URxvt*mouseWheelScrollPage : boolean
! URxvt*tripleclickwords     : boolean
! URxvt*insecure             : boolean
! URxvt*cursorUnderline      : boolean
! URxvt*cursorBlink          : boolean
! URxvt*pointerBlank         : boolean
